
******************************************************************************
This program contains Ipopt, a library for large-scale nonlinear optimization.
 Ipopt is released as open source code under the Eclipse Public License (EPL).
         For more information visit http://projects.coin-or.org/Ipopt
******************************************************************************

This is Ipopt version 3.12.6, running with linear solver ma57.

Number of nonzeros in equality constraint Jacobian...:        0
Number of nonzeros in inequality constraint Jacobian.:       17
Number of nonzeros in Lagrangian Hessian.............:       13

Total number of variables............................:        8
                     variables with only lower bounds:        0
                variables with lower and upper bounds:        8
                     variables with only upper bounds:        0
Total number of equality constraints.................:        0
Total number of inequality constraints...............:        6
        inequality constraints with only lower bounds:        6
   inequality constraints with lower and upper bounds:        0
        inequality constraints with only upper bounds:        0

iter    objective    inf_pr   inf_du lg(mu)  ||d||  lg(rg) alpha_du alpha_pr  ls
   0  1.5000000e+04 6.25e+04 1.00e+00  -1.0 0.00e+00    -  0.00e+00 0.00e+00   0
   1  1.0733394e+04 4.37e+04 3.37e-01  -1.0 2.47e+03    -  6.63e-01 6.18e-01f  1
   2  9.8950279e+03 4.27e+04 2.79e+01  -1.0 4.95e+03    -  5.63e-01 6.91e-02f  1
   3  9.7426468e+03 4.19e+04 2.64e+02  -1.0 3.53e+03    -  2.59e-01 1.78e-02f  1
   4  9.4318629e+03 3.99e+04 3.94e+02  -1.0 3.28e+03    -  2.77e-01 3.76e-02f  1
   5  9.3550654e+03 3.90e+04 6.72e+03  -1.0 4.79e+03    -  7.30e-01 2.25e-02f  1
   6  5.6541431e+03 8.09e+04 2.71e+01  -1.0 2.88e+03    -  6.43e-01 9.86e-01f  1
   7  5.6855286e+03 6.91e+04 1.23e+03  -1.0 2.51e+03    -  6.33e-01 1.46e-01h  1
   8  6.9162842e+03 9.35e+03 8.06e+02  -1.0 7.22e+02    -  4.33e-02 8.78e-01h  1
   9  7.0786792e+03 3.72e+02 4.62e+02  -1.0 1.75e+02    -  5.87e-01 1.00e+00h  1
iter    objective    inf_pr   inf_du lg(mu)  ||d||  lg(rg) alpha_du alpha_pr  ls
  10  7.0275605e+03 1.83e+03 1.92e+02  -1.0 2.34e+02    -  2.69e-01 1.00e+00f  1
  11  7.0493851e+03 2.99e+01 4.48e-03  -1.0 5.01e+01    -  1.00e+00 1.00e+00h  1
  12  7.0493679e+03 0.00e+00 2.00e-07  -1.7 1.89e-01    -  1.00e+00 1.00e+00h  1
  13  7.0492488e+03 0.00e+00 2.76e-08  -3.8 9.18e-02    -  1.00e+00 1.00e+00f  1
Reallocating memory for MA57: lfact (389)
  14  7.0492479e+03 0.00e+00 1.84e-11  -5.7 7.06e-04    -  1.00e+00 1.00e+00h  1
Reallocating memory for MA57: lfact (435)
  15  7.0492479e+03 0.00e+00 2.51e-14  -8.6 8.54e-06    -  1.00e+00 1.00e+00h  1

Number of Iterations....: 15

                                   (scaled)                 (unscaled)
Objective...............:   7.0492478976965140e+03    7.0492478976965140e+03
Dual infeasibility......:   2.5091040356528538e-14    1.2963514457401332e-14
Constraint violation....:   0.0000000000000000e+00    0.0000000000000000e+00
Complementarity.........:   2.5059472834533164e-09    2.5059472834533164e-09
Overall NLP error.......:   4.4872555142012052e-10    2.5059472834533164e-09


Number of objective function evaluations             = 16
Number of objective gradient evaluations             = 16
Number of equality constraint evaluations            = 0
Number of inequality constraint evaluations          = 16
Number of equality constraint Jacobian evaluations   = 0
Number of inequality constraint Jacobian evaluations = 16
Number of Lagrangian Hessian evaluations             = 15
Total CPU secs in IPOPT (w/o function evaluations)   =      0.000
Total CPU secs in NLP function evaluations           =      0.003

EXIT: Optimal Solution Found.

************************ CUTEst statistics ************************


 Package used            :  IPOPT
 Problem                 :  HS106     
 # variables             =               8
 # constraints           =               6
 # objective functions   =        0.3300000E+02
 # objective gradients   =        0.1700000E+02
 # objective Hessians    =        0.1600000E+02
 # Hessian-vector prdct  =        0.0000000E+00
 # constraints functions =        0.3400000E+02
 # constraints gradients =        0.1800000E+02
 # constraints Hessians  =        0.1600000E+02
 Exit code               =               0
 Final f                 =   0.7049248E+04
 Set up time             =            0.00 seconds
 Solve time              =            0.02 seconds


******************************************************************

System Time =       0.0049999999 s.
